NAME : amz1464.399003_75003.tour
COMMENT : Cost = 399003_75003
COMMENT : Found by LKH-AMZ [Keld Helsgaun] Sun May 11 14:53:38 2025
COMMENT : TW viol.: 0 #: 0
TYPE : TOUR
DIMENSION : 104
TOUR_SECTION
19
82
89
34
24
86
90
76
87
11
13
57
102
10
41
50
25
85
18
93
54
91
3
35
4
53
26
99
83
48
94
66
37
58
1
81
32
80
92
64
70
47
8
67
31
60
33
97
6
36
95
2
15
72
98
39
12
43
42
9
59
69
61
23
52
46
22
62
71
40
104
30
103
55
100
27
38
74
75
65
96
7
16
29
45
79
63
51
73
101
77
21
44
49
56
88
28
84
17
78
5
14
68
20
-1
EOF
